c Random generated cnf formula, satisfiable: true
p cnf 10 50
-3 2 5 0
5 -3 -4 0
-10 -3 8 0
-1 -3 -10 0
8 7 4 0
4 -9 -8 0
-1 10 -9 0
3 2 -10 0
2 -6 5 0
-3 -8 -6 0
-7 -2 4 0
-6 -8 -10 0
-6 3 4 0
-5 -1 -7 0
-3 -4 10 0
8 -9 4 0
-9 -3 2 0
7 -9 5 0
4 3 7 0
-9 3 4 0
10 -3 5 0
-8 2 -10 0
-7 -8 -2 0
8 -2 -10 0
-5 9 10 0
-1 7 -8 0
6 -5 -10 0
10 -7 -8 0
1 -3 -9 0
-3 -5 10 0
-9 3 1 0
-10 -5 -3 0
1 -10 7 0
9 2 -10 0
10 2 6 0
-10 4 1 0
9 -7 2 0
1 4 3 0
-8 -7 6 0
4 -5 -9 0
-3 2 5 0
5 -3 9 0
3 4 -6 0
-10 6 -8 0
2 -4 8 0
6 4 -1 0
-8 -1 5 0
-10 -2 8 0
-9 10 8 0
-9 -1 -8 0
